184 3916
 2 3 4 5 6 7 8 9 10 11 12 13 14 15 16 33 34 35 36 37 38 39 40 41 42 43 44 45 46 47 48 49 50 51 52 53 54 55 56 57 58 59 60 61 62 63 64 65 66 67 68 69 70 71 72 73 74 75 76 77 78 79 80 81 82 83 84 85 86 87 88 89 90 91 92 93 94 95 96 97 98 99 100 101 102 103 104 105 106 107 109 110 111 112 113 114 115 116 117 118 119 120 121 122 123 124 125 127 128 129 130 131 132 133 134 135 136 137 139 141 142 143 144 145 146 147 149 151 152 153 154 155 157 159 160 161 162 163 164 165 166 167 168 169 170 171 172 173 174 175 176 177 179 180 182 183 184
 3 4 5 6 7 8 9 10 11 12 13 14 15 16 33 34 35 36 37 38 39 40 41 42 43 44 45 46 47 48 49 50 51 52 53 54 55 56 57 58 59 60 61 62 63 64 65 66 67 68 69 70 71 72 73 74 75 76 77 78 79 80 81 82 83 84 85 86 87 88 89 90 91 92 93 94 95 96 97 98 99 100 101 102 103 104 105 106 107 109 110 111 112 113 114 115 116 117 118 119 120 121 122 123 124 125 127 128 129 130 131 132 133 134 135 136 137 139 141 142 143 144 145 146 147 149 151 152 153 154 155 157 159 160 161 162 163 164 165 166 167 168 169 170 171 172 173 174 175 176 177 179 180 182 183 184
 4 5 6 7 8 9 10 11 12 13 14 15 16 33 38 39 40 41 42 43 44 45 46 47 48 49 50 51 52 53 54 55 56 57 58 59 60 61 63 64 65 66 67 70 100 101 102 103 104 105 106 107 111 112 117 118 120 128 130 132 133 134 136 137 141 142 143 144 145 146 147 151 152 153 154 155 161 162 163 179 180
 5 6 7 8 9 10 11 12 13 14 15 16 33 46 47 48 49 50 51 52 53 54 61 63 64 65 66 67 70 100 101 102 103 104 105 106 107 111 112 117 118 120 128 130 132 133 134 136 137 141 142 143 144 145 146 147 151 152 153 154 155 161 162 163 179 180
 6 7 8 9 10 11 12 13 14 15 16 33 38 46 47 48 49 50 51 52 53 54 61 63 64 65 66 67 70 100 101 102 103 104 105 106 107 111 112 117 118 120 128 130 132 133 134 136 137 141 142 143 144 145 146 147 151 152 153 154 155 161 162 163 173 179 180
 7 8 9 10 11 12 13 14 15 16 33 38 39 46 47 48 49 50 51 52 53 54 61 63 64 65 66 67 70 100 101 102 103 104 105 106 107 111 112 117 118 120 128 130 132 133 134 136 137 141 142 143 144 145 146 147 151 152 153 154 155 161 162 163 172 173 179 180
 8 9 10 11 12 13 14 15 16 33 38 39 40 46 47 48 49 50 51 52 53 54 61 63 64 65 66 67 70 100 101 102 103 104 105 106 107 111 112 117 118 120 128 130 132 133 134 136 137 141 142 143 144 145 146 147 151 152 153 154 155 161 162 163 171 172 173 179 180
 9 10 11 12 13 14 15 16 33 38 39 40 41 46 47 48 49 50 51 52 53 54 61 63 64 65 66 67 70 100 101 102 103 104 105 106 107 111 112 117 118 120 128 130 132 133 134 136 137 141 142 143 144 145 146 147 151 152 153 154 155 161 162 163 170 171 172 173 179 180
 10 11 12 13 14 15 16 33 38 39 40 41 42 46 47 48 49 50 51 52 53 54 61 63 64 65 66 67 70 100 101 102 103 104 105 106 107 111 112 117 118 120 128 130 132 133 134 136 137 141 142 143 144 145 146 147 151 152 153 154 155 161 162 163 169 170 171 172 173 179 180
 11 12 13 14 15 16 33 38 39 40 41 42 43 46 47 48 49 50 51 52 53 54 61 63 64 65 66 67 70 100 101 102 103 104 105 106 107 111 112 117 118 120 128 130 132 133 134 136 137 141 142 143 144 145 146 147 151 152 153 154 155 161 162 163 168 169 170 171 172 173 179 180
 12 13 14 15 16 33 38 39 40 41 42 43 44 45 46 47 48 49 50 51 52 53 54 61 63 64 65 66 67 70 100 101 102 103 104 105 106 107 111 112 117 118 120 128 130 132 133 134 136 137 141 142 143 144 145 146 147 151 152 153 154 155 161 162 163 179 180
 13 14 15 16 33 38 39 40 41 42 43 44 45 46 47 48 49 50 51 52 53 54 55 56 61 63 64 65 66 67 70 100 101 102 103 104 105 106 107 111 112 117 118 120 128 130 132 133 134 136 137 141 142 143 144 145 146 147 151 152 153 154 155 161 162 163 179 180
 14 15 16 33 38 39 40 41 42 43 44 45 46 47 48 49 50 51 52 53 54 55 56 57 58 61 63 64 65 66 67 70 100 101 102 103 104 105 106 107 111 112 117 118 120 128 130 132 133 134 136 137 141 142 143 144 145 146 147 151 152 153 154 155 161 162 163 179 180
 15 16 33 38 39 40 41 42 43 44 45 46 47 48 49 50 51 52 53 54 55 56 57 58 59 61 63 64 65 66 67 70 100 101 102 103 104 105 106 107 111 112 117 118 120 128 130 132 133 134 136 137 141 142 143 144 145 146 147 151 152 153 154 155 161 162 163 179 180
 16 33 46 47 48 49 50 51 52 53 54 61 63 64 65 66 67 70 100 101 102 103 104 105 106 107 111 112 117 118 120 128 130 132 133 134 136 137 141 142 143 144 145 146 147 151 152 153 154 155 161 162 163 179 180
 33 38 39 40 41 42 43 44 46 47 48 49 50 51 52 53 54 61 63 64 65 66 67 70 100 101 102 103 104 105 106 107 111 112 117 118 120 128 130 132 133 134 136 137 141 142 143 144 145 146 147 151 152 153 154 155 161 162 163 167 168 169 170 171 172 173 179 180
 18 19 20 21 22 23 24 25 26 27 28 29 30 31 32 33 34 35 36 37 38 39 40 41 42 43 44 45 46 47 48 49 50 51 52 53 54 55 56 57 58 59 60 61 62 63 64 65 66 67 68 69 70 71 72 73 74 75 76 77 78 79 80 81 82 83 84 85 86 87 88 89 90 91 92 93 94 95 96 97 98 99 100 101 102 103 104 105 106 107 109 110 111 112 113 114 115 116 117 118 119 120 121 122 123 124 125 127 128 129 130 131 132 133 134 135 136 137 139 141 142 143 144 145 146 147 149 151 152 153 154 155 157 159 160 161 162 163 164 165 166 167 168 169 170 171 172 173 174 175 176 177 179 180 182 183 184
 19 20 21 22 23 24 25 26 27 28 29 30 31 32 34 35 36 37 38 39 40 41 42 43 44 45 55 56 57 58 59 60 62 68 69 71 72 73 74 75 76 77 78 79 80 81 82 83 84 85 86 87 88 89 90 91 92 93 94 95 96 97 98 99 109 110 113 114 115 116 119 121 122 123 124 125 127 129 131 135 139 149 157 159 160 164 165 166 167 168 169 170 171 172 173 174 175 176 177 182 183 184
 20 21 22 23 24 25 26 27 28 29 30 31 32 34 35 36 37 38 39 40 41 42 43 44 45 46 55 56 57 58 59 60 62 68 69 71 72 73 74 75 76 77 78 79 80 81 82 83 84 85 86 87 88 89 90 91 92 93 94 95 96 97 98 99 109 110 113 114 115 116 119 121 122 123 124 125 127 129 131 135 139 149 157 159 160 161 164 165 166 167 168 169 170 171 172 173 174 175 176 177 182 183 184
 21 22 23 24 25 26 27 28 29 30 31 32 34 35 36 37 38 39 40 41 42 43 44 45 46 47 55 56 57 58 59 60 62 68 69 71 72 73 74 75 76 77 78 79 80 81 82 83 84 85 86 87 88 89 90 91 92 93 94 95 96 97 98 99 109 110 113 114 115 116 119 121 122 123 124 125 127 129 131 135 139 149 157 159 160 161 162 164 165 166 167 168 169 170 171 172 173 174 175 176 177 182 183 184
 22 23 24 25 26 27 28 29 30 31 32 34 35 36 37 38 39 40 41 42 43 44 45 46 47 48 55 56 57 58 59 60 62 68 69 71 72 73 74 75 76 77 78 79 80 81 82 83 84 85 86 87 88 89 90 91 92 93 94 95 96 97 98 99 109 110 113 114 115 116 119 121 122 123 124 125 127 129 131 135 139 149 157 159 160 161 162 163 164 165 166 167 168 169 170 171 172 173 174 175 176 177 182 183 184
 23 24 25 26 27 28 29 30 31 32 34 35 36 37 38 39 40 41 42 43 44 45 46 47 48 49 55 56 57 58 59 60 62 68 69 71 72 73 74 75 76 77 78 79 80 81 82 83 84 85 86 87 88 89 90 91 92 93 94 95 96 97 98 99 109 110 113 114 115 116 119 121 122 123 124 125 127 129 131 135 139 149 157 159 160 161 162 163 164 165 166 167 168 169 170 171 172 173 174 175 176 177 182 183 184
 24 25 26 27 28 29 30 31 32 34 35 36 37 38 39 40 41 42 43 44 45 46 47 48 49 50 55 56 57 58 59 60 62 68 69 71 72 73 74 75 76 77 78 79 80 81 82 83 84 85 86 87 88 89 90 91 92 93 94 95 96 97 98 99 109 110 113 114 115 116 119 121 122 123 124 125 127 129 131 135 139 149 157 159 160 161 162 163 164 165 166 167 168 169 170 171 172 173 174 175 176 177 182 183 184
 25 26 27 28 29 30 31 32 34 35 36 37 38 39 40 41 42 43 44 45 46 47 48 49 50 51 55 56 57 58 59 60 62 68 69 71 72 73 74 75 76 77 78 79 80 81 82 83 84 85 86 87 88 89 90 91 92 93 94 95 96 97 98 99 109 110 113 114 115 116 119 121 122 123 124 125 127 129 131 135 139 149 157 159 160 161 162 163 164 165 166 167 168 169 170 171 172 173 174 175 176 177 182 183 184
 26 27 28 29 30 31 32 34 35 36 37 38 39 40 41 42 43 44 45 46 47 48 49 50 51 52 55 56 57 58 59 60 62 68 69 71 72 73 74 75 76 77 78 79 80 81 82 83 84 85 86 87 88 89 90 91 92 93 94 95 96 97 98 99 109 110 113 114 115 116 119 121 122 123 124 125 127 129 131 135 139 149 157 159 160 161 162 163 164 165 166 167 168 169 170 171 172 173 174 175 176 177 182 183 184
 27 28 29 30 31 32 34 35 36 37 38 39 40 41 42 43 44 45 46 47 48 49 50 51 52 53 55 56 57 58 59 60 62 68 69 71 72 73 74 75 76 77 78 79 80 81 82 83 84 85 86 87 88 89 90 91 92 93 94 95 96 97 98 99 109 110 113 114 115 116 119 121 122 123 124 125 127 129 131 135 139 149 157 159 160 161 162 163 164 165 166 167 168 169 170 171 172 173 174 175 176 177 182 183 184
 28 29 30 31 32 34 35 36 37 38 39 40 41 42 43 44 45 55 56 57 58 59 60 62 68 69 71 72 73 74 75 76 77 78 79 80 81 82 83 84 85 86 87 88 89 90 91 92 93 94 95 96 97 98 99 109 110 113 114 115 116 119 121 122 123 124 125 127 129 131 135 139 149 157 159 160 164 165 166 167 168 169 170 171 172 173 174 175 176 177 182 183 184
 29 30 31 32 34 35 36 37 38 39 40 41 42 43 44 45 55 56 57 58 59 60 62 68 69 71 72 73 74 75 76 77 78 79 80 81 82 83 84 85 86 87 88 89 90 91 92 93 94 95 96 97 98 99 109 110 113 114 115 116 119 121 122 123 124 125 127 129 131 135 139 149 157 159 160 164 165 166 167 168 169 170 171 172 173 174 175 176 177 182 183 184
 30 31 32 34 35 36 37 38 39 40 41 42 43 44 45 55 56 57 58 59 60 62 68 69 71 72 73 74 75 76 77 78 79 80 81 82 83 84 85 86 87 88 89 90 91 92 93 94 95 96 97 98 99 109 110 113 114 115 116 119 121 122 123 124 125 127 129 131 135 139 149 157 159 160 164 165 166 167 168 169 170 171 172 173 174 175 176 177 182 183 184
 31 32 34 35 36 37 38 39 40 41 42 43 44 45 55 56 57 58 59 60 62 68 69 71 72 73 74 75 76 77 78 79 80 81 82 83 84 85 86 87 88 89 90 91 92 93 94 95 96 97 98 99 109 110 113 114 115 116 119 121 122 123 124 125 127 129 131 135 139 149 157 159 160 164 165 166 167 168 169 170 171 172 173 174 175 176 177 182 183 184
 32 34 35 36 37 38 39 40 41 42 43 44 45 55 56 57 58 59 60 62 68 69 71 72 73 74 75 76 77 78 79 80 81 82 83 84 85 86 87 88 89 90 91 92 93 94 95 96 97 98 99 109 110 113 114 115 116 119 121 122 123 124 125 127 129 131 135 139 149 157 159 160 164 165 166 167 168 169 170 171 172 173 174 175 176 177 182 183 184
 34 35 36 37 38 39 40 41 42 43 44 45 55 56 57 58 59 60 62 68 69 71 72 73 74 75 76 77 78 79 80 81 82 83 84 85 86 87 88 89 90 91 92 93 94 95 96 97 98 99 109 110 113 114 115 116 119 121 122 123 124 125 127 129 131 135 139 149 157 159 160 164 165 166 167 168 169 170 171 172 173 174 175 176 177 182 183 184
 49 50 51 52 53 54 61 63 65 66 67 70 107 111
 60 71 83 85 86 89 90 92 93 95 96 127 129 131 135 139
 60 71 83 85 86 89 90 92 93 95 96 157
 60 71 83 85 86 89 90 92 93 95 96 149
 176 177 182











 50 51 52 53 54 61 63 64 65 66 67 70 100 101 102 103 104 105 106 107 111 112 117 118 120 128 130 132 133 134 136 137 141 142 143 144 145 146 147 151 152 153 154 155 161 162 163 179 180
 51 52 53 54 61 63 64 65 66 67 70 100 101 102 103 104 105 106 107 111 112 117 118 120 128 130 132 133 134 136 137 141 142 143 144 145 146 147 151 152 153 154 155 161 162 163 179 180
 52 53 54 61 63 64 65 66 67 70 100 101 102 103 104 105 106 107 111 112 117 118 120 128 130 132 133 134 136 137 141 142 143 144 145 146 147 151 152 153 154 155 161 162 163 179 180
 53 54 61 63 64 65 66 67 70 100 101 102 103 104 105 106 107 111 112 117 118 120 128 130 132 133 134 136 137 141 142 143 144 145 146 147 151 152 153 154 155 161 162 163 179 180
 54 61 63 64 65 66 67 70 100 101 102 103 104 105 106 107 111 112 117 118 120 128 130 132 133 134 136 137 141 142 143 144 145 146 147 151 152 153 154 155 161 162 163 179 180
 61 63 64 65 66 67 70 100 101 102 103 104 105 106 107 111 112 117 118 120 128 130 132 133 134 136 137 141 142 143 144 145 146 147 151 152 153 154 155 161 162 163 179 180





 62 68 69 71 72 73 74 75 76 77 78 79 80 81 82 83 84 85 86 87 88 89 90 91 92 93 94 95 96 97 98 99 109 110 113 114 115 116 119 121 122 123 124 127 129 131 135 139 149 157
 63 64 65 66 67 70 100 101 102 103 104 105 106 107 111 112 117 118 120 128 130 132 133 134 136 137 141 142 143 144 145 146 147 151 152 153 154 155

 64 65 66 67 70 100 101 102 103 104 105 106 107 111 112 117 118 120 128 130 132 133 134 136 137 141 142 143 144 145 146 147 151 152 153 154 155

 66 67 70 100 101 102 103 104 105 106 107 111 112 117 118 120 128 130 132 133 134 136 137 141 142 143 144 145 146 147 151 152 153 154 155
 67 70 100 101 102 103 104 105 106 107 111 112 117 118 120 128 130 132 133 134 136 137 141 142 143 144 145 146 147 151 152 153 154 155
 70 100 101 102 103 104 105 106 107 111 112 117 118 120 128 130 132 133 134 136 137 141 142 143 144 145 146 147 151 152 153 154 155

 71 72 73 74
 100 101 102 103 104 105 106 107 111 112 117 118 120 128 130 132 133 134 136 137 141 142 143 144 145 146 147 151 152 153 154 155
 72 73 74 75 76 77 78 79 80 81 82 83 84 85 86 87 88 89 90 91 92 93 94 95 96 97 98 99 109 110 113 114 115 116 119 121 122 123 124 127 129 131 135 139 149 157

 74



 78 79 80 81
 79 80 81 82 83
 80 81 82 83 84
 81 82 83 84 85
 82 83 84 85 86 87
 83 84 85 86 87 88 89
 84 85 86 87 88 89 90 91 92 93 94 95 96 97 98 99 109 110 113 114 115 116 119 121 122 123 124 127 129 131 135 139 149 157
 85 86
 86 87 88 89 90 91 92 93 94 95 96 97 98 99 109 110 113 114 115 116 119 121 122 123 124 127 129 131 135 139 149 157
 87 88 89 90 91 92 93 94 95 96 97 98 99 109 110 113 114 115 116 119 121 122 123 124 127 129 131 135 139 149 157
 88 89 90 91 92
 89 90 91 92 93 94 95
 90 91 92 93 94 95 96 97 98 99 109 110 113 114 115 116 119 121 122 123 124 127 129 131 135 139 149 157
 91 92 93 94 95 96 97 98 99 109 110 113 114 115 116 119 121 122 123 124 127 129 131 135 139 149 157

 93 94 95 96 97 98 99 109 110 113 114 115 116 119 121 122 123 124 127 129 131 135 139 149 157
 94 95 96 97 98 99 109 110 113 114 115 116 119 121 122 123 124 127 129 131 135 139 149 157

 96 97 98 99 109 110 113 114 115 116 119 121 122 123 124 127 129 131 135 139 149 157
 97 98 99 109 110 113 114 115 116 119 121 122 123 124 127 129 131 135 139 149 157

 99








 151 152 153 154 155

 110



 114 115 116
 115 116 119
 116
 119
 118




 123




 129 131 135
 130 132 133

 132



 136






 142 143 144
 143


 146













 160

 162 163
 163

 165

 167 168 169 170 171 172 173
 168 169 170 171 172 173
 169 170 171 172 173
 170 171 172 173
 171 172 173
 172 173
 173

 175
 176
 177 182
 182







